NAME : eil75
COMMENT : 75-city problem derived from Christofides/Eilon according to Darrell Whitley, Tim Starkweather, and D’Ann Fuquay. Scheduling problems and traveling salesman: The genetic edge recombination operator. In David Schaffer, editor. Proceedings of the Third International Conference on Genetic Algorithms (ICGA). Morgan Kaufmann, June 1989., pages 133–140.
TYPE : TSP
DIMENSION : 75
EDGE_WEIGHT_TYPE : EUC_2D
NODE_COORD_SECTION
1	48 21
2	52 26
3	50 30
4	55 34
5	54 38
6	50 40
7	51 42
8	55 45
9	55 50
10	50 50
11	41 46
12	45 42
13	45 35
14	40 37
15	38 33
16	33 34
17	29 39
18	33 44
19	35 51
20	30 50
21	22 53
22	21 48
23	21 45
24	21 36
25	20 30
26	26 29
27	22 22
28	27 24
29	30 20
30	35 16
31	36 6
32	26 13
33	15 5
34	15 14
35	16 19
36	12 17
37	6 25
38	11 28
39	12 38
40	7 43
41	9 56
42	15 56
43	10 70
44	17 64
45	26 59
46	30 60
47	31 76
48	40 66
49	35 60
50	40 60
51	47 66
52	50 70
53	55 65
54	57 72
55	70 64
56	62 57
57	55 57
58	62 48
59	67 41
60	62 35
61	65 27
62	62 24
63	55 20
64	60 15
65	66 14
66	66 8
67	64 4
68	59 5
69	50 4
70	54 10
71	50 15
72	44 13
73	40 20
74	36 26
75	43 26
TOUR_SECTION
1 2 3 4 5 6 7 8 58 59 60 61 62 63 64 65 66 67 68 69 70 71 72 31 32 33 34
35 36 37 38 39 40 41 42 44 43 47 48 51 52 54 53 55 56 57 9 10 11 12 13
14 15 16 17 18 20 19 50 49 46 45 21 22 23 24 25 26 27 28 29 30 73 74 75
-1
EOF
